(set-logic QF_S)
(declare-fun var0 () String)
(declare-fun var1 () String)
(declare-fun var2 () String)
(declare-fun var3 () String)
(declare-fun var4 () String)
(declare-fun var5 () String)
(declare-fun var6 () String)
(declare-fun var7 () String)
(declare-fun var8 () String)
(declare-fun var9 () String)
(declare-fun var10 () String)
(declare-fun var11 () String)
(declare-fun var12 () String)
(declare-fun var13 () String)
(declare-fun var14 () String)
(declare-fun var15 () String)
(declare-fun var16 () String)
(declare-fun var17 () String)
(declare-fun var18 () String)
(declare-fun var19 () String)
(declare-fun var20 () String)
(declare-fun var21 () String)
(declare-fun var22 () String)
(declare-fun var23 () String)
(declare-fun var24 () String)
(declare-fun var25 () String)
(declare-fun var26 () String)
(declare-fun var27 () String)
(declare-fun var28 () String)
(declare-fun var29 () String)
(declare-fun var30 () String)
(declare-fun var31 () String)
(declare-fun var32 () String)
(declare-fun var33 () String)
(declare-fun var34 () String)
(declare-fun var35 () String)
(declare-fun var36 () String)
(declare-fun var37 () String)
(declare-fun var38 () String)
(declare-fun var39 () String)
(declare-fun var40 () String)
(declare-fun var41 () String)
(declare-fun var42 () String)
(declare-fun var43 () String)
(declare-fun var44 () String)
(declare-fun var45 () String)
(declare-fun var46 () String)
(declare-fun var47 () String)
(declare-fun var48 () String)
(declare-fun var49 () String)
(declare-fun var50 () String)
(declare-fun var51 () String)
(declare-fun var52 () String)
(declare-fun var53 () String)
(declare-fun var54 () String)
(declare-fun var55 () String)
(declare-fun var56 () String)
(declare-fun var57 () String)
(declare-fun var58 () String)
(declare-fun var59 () String)
(declare-fun var60 () String)
(assert (= var0 (Concat var1 var2)))
(assert (= var2 (Concat var3 var4)))
(assert (= var4 (Concat var5 var6)))
(assert (= var6 (Concat var7 var8)))
(assert (= var8 (Concat var9 var10)))
(assert (= var10 (Concat var11 var12)))
(assert (= var12 (Concat var13 var14)))
(assert (= var14 (Concat var15 var16)))
(assert (= var16 (Concat var17 var18)))
(assert (= var18 (Concat var19 var20)))
(assert (= var20 (Concat var21 var22)))
(assert (= var22 (Concat var23 var24)))
(assert (= var24 (Concat var25 var26)))
(assert (= var26 (Concat var27 var28)))
(assert (= var28 (Concat var29 var30)))
(assert (= var30 (Concat var31 var32)))
(assert (= var32 (Concat var33 var34)))
(assert (= var34 (Concat var35 var36)))
(assert (= var36 (Concat var37 var38)))
(assert (= var38 (Concat var39 var40)))
(assert (= var40 (Concat var41 var42)))
(assert (= var42 (Concat var43 var44)))
(assert (= var44 (Concat var45 var46)))
(assert (= var46 (Concat var47 var48)))
(assert (= var48 (Concat var49 var50)))
(assert (= var50 (Concat var51 var52)))
(assert (= var52 (Concat var53 var54)))
(assert (= var54 (Concat var55 var56)))
(assert (= var56 (Concat var57 var58)))
(assert (= var58 (Concat var59 var60)))
(assert (= var0 "solution"))
(assert (= ">" (CharAt var55 373)))
(assert (= "G" (CharAt var43 991)))
(assert (= "o" (CharAt var0 313)))
(assert (= "b" (CharAt var51 844)))
(assert (= "X" (CharAt var5 912)))
(assert (= "O" (CharAt var53 726)))
(assert (= "." (CharAt var23 324)))
(assert (= "E" (CharAt var6 91)))
(assert (= "W" (CharAt var49 456)))
(assert (= "|" (CharAt var41 827)))
(assert (= "Z" (CharAt var5 654)))
(assert (= "c" (CharAt var27 2)))
(assert (= "2" (CharAt var33 6)))
(assert (= "y" (CharAt var32 602)))
(assert (= "F" (CharAt var21 510)))
(assert (= "X" (CharAt var28 548)))
(assert (= "E" (CharAt var24 738)))
(assert (= "?" (CharAt var51 118)))
(assert (= "\\" (CharAt var22 132)))
(assert (= "R" (CharAt var21 502)))
(assert (= "!" (CharAt var51 232)))
(assert (= "6" (CharAt var12 430)))
(assert (= "]" (CharAt var12 721)))
(assert (= "+" (CharAt var0 32)))
(assert (= "B" (CharAt var37 519)))
(assert (= "O" (CharAt var38 435)))
(assert (= "y" (CharAt var19 110)))
(assert (= "f" (CharAt var34 148)))
(assert (= "@" (CharAt var52 107)))
(assert (= ")" (CharAt var55 24)))
(assert (= "d" (CharAt var29 994)))
(assert (= "(" (CharAt var50 316)))
(assert (= "N" (CharAt var36 453)))
(assert (= "\"" (CharAt var39 468)))
(assert (= "6" (CharAt var59 461)))
(assert (= "5" (CharAt var19 685)))
(assert (= "2" (CharAt var17 735)))
(assert (= "n" (CharAt var12 337)))
(assert (= "j" (CharAt var37 414)))
(assert (= "7" (CharAt var3 347)))
(assert (= "o" (CharAt var36 46)))
(assert (= "S" (CharAt var42 688)))
(assert (= "]" (CharAt var20 172)))
(assert (= "]" (CharAt var53 378)))
(assert (= "p" (CharAt var49 405)))
(assert (= "L" (CharAt var11 499)))
(assert (= "Z" (CharAt var43 87)))
(assert (= "1" (CharAt var10 804)))
(assert (= "1" (CharAt var9 766)))
(assert (= "p" (CharAt var55 464)))
(assert (= "#" (CharAt var56 418)))
(assert (= "&" (CharAt var14 800)))
(assert (= "9" (CharAt var60 605)))
(assert (= "1" (CharAt var16 774)))
(assert (= "s" (CharAt var3 590)))
(assert (= "C" (CharAt var9 870)))
(assert (= "8" (CharAt var47 421)))
(assert (= "n" (CharAt var45 364)))
(assert (= "3" (CharAt var38 44)))
(assert (= "r" (CharAt var21 327)))
(assert (= "." (CharAt var44 754)))
(assert (= "k" (CharAt var39 388)))
(assert (= "1" (CharAt var23 314)))
(assert (= "N" (CharAt var28 736)))
(assert (= "-" (CharAt var43 604)))
(assert (= "h" (CharAt var33 957)))
(assert (= "J" (CharAt var23 40)))
(assert (= "L" (CharAt var45 221)))
(assert (= "D" (CharAt var10 353)))
(assert (= "J" (CharAt var30 110)))
(assert (= "`" (CharAt var5 761)))
(assert (= "a" (CharAt var51 187)))
(assert (= "*" (CharAt var4 696)))
(assert (= "3" (CharAt var36 656)))
(assert (= "^" (CharAt var3 330)))
(assert (= ")" (CharAt var2 424)))
(assert (= "7" (CharAt var22 359)))
(assert (= "m" (CharAt var32 512)))
(assert (= "d" (CharAt var12 901)))
(assert (= "e" (CharAt var28 31)))
(assert (= "!" (CharAt var49 257)))
(assert (= "8" (CharAt var60 336)))
(assert (= "{" (CharAt var7 848)))
(assert (= "X" (CharAt var17 968)))
(assert (= "8" (CharAt var47 204)))
(assert (= "@" (CharAt var39 376)))
(assert (= "=" (CharAt var47 771)))
(assert (= "R" (CharAt var19 945)))
(assert (= "+" (CharAt var21 668)))
(assert (= "w" (CharAt var60 419)))
(assert (= "h" (CharAt var23 848)))
(assert (= "O" (CharAt var28 444)))
(assert (= "`" (CharAt var44 766)))
(assert (= "1" (CharAt var25 73)))
(assert (= "w" (CharAt var46 946)))
(assert (= "`" (CharAt var19 42)))
(assert (= "v" (CharAt var38 244)))
(assert (= "s" (CharAt var33 862)))
(assert (= "7" (CharAt var3 836)))
(assert (= ">" (CharAt var40 389)))
(assert (= "$" (CharAt var51 728)))
(assert (= "=" (CharAt var18 939)))
(assert (= "T" (CharAt var19 721)))
(assert (= "!" (CharAt var22 497)))
(assert (= "t" (CharAt var4 852)))
(assert (= "G" (CharAt var56 643)))
(assert (= "\\" (CharAt var56 162)))
(assert (= "m" (CharAt var15 688)))
(assert (= "~" (CharAt var32 256)))
(assert (= "s" (CharAt var52 382)))
(assert (= "E" (CharAt var22 765)))
(assert (= "4" (CharAt var17 973)))
(assert (= "k" (CharAt var17 766)))
(assert (= "<" (CharAt var25 56)))
(assert (= "D" (CharAt var54 99)))
(assert (= "c" (CharAt var52 224)))
(assert (= "e" (CharAt var18 38)))
(assert (= "~" (CharAt var45 537)))
(assert (= "L" (CharAt var41 949)))
(assert (= "|" (CharAt var27 336)))
(assert (= "d" (CharAt var27 349)))
(assert (= "'" (CharAt var40 589)))
(assert (= "X" (CharAt var55 768)))
(assert (= "]" (CharAt var26 777)))
(assert (= "F" (CharAt var7 872)))
(assert (= "B" (CharAt var44 400)))
(assert (= "&" (CharAt var38 901)))
(assert (= "I" (CharAt var27 346)))
(assert (= "I" (CharAt var14 691)))
(assert (= "A" (CharAt var29 908)))
(assert (= ";" (CharAt var37 918)))
(assert (= "F" (CharAt var60 259)))
(assert (= "]" (CharAt var16 453)))
(assert (= "e" (CharAt var38 57)))
(assert (= "+" (CharAt var33 963)))
(assert (= "\\" (CharAt var34 600)))
(assert (= "Q" (CharAt var41 189)))
(assert (= "b" (CharAt var6 74)))
(assert (= "O" (CharAt var2 282)))
(assert (= "0" (CharAt var24 933)))
(assert (= "5" (CharAt var59 991)))
(assert (= "t" (CharAt var56 929)))
(assert (= "q" (CharAt var2 901)))
(assert (= "#" (CharAt var8 131)))
(assert (= "j" (CharAt var9 638)))
(assert (= "R" (CharAt var48 851)))
(assert (= "," (CharAt var21 982)))
(assert (= "p" (CharAt var2 331)))
(assert (= "-" (CharAt var49 378)))
(assert (= "N" (CharAt var12 398)))
(assert (= "O" (CharAt var44 628)))
(assert (= "+" (CharAt var7 773)))
(assert (= "M" (CharAt var29 985)))
(assert (= "v" (CharAt var38 812)))
(assert (= "]" (CharAt var8 756)))
(assert (= "I" (CharAt var39 765)))
(assert (= "C" (CharAt var24 997)))
(assert (= "=" (CharAt var55 797)))
(assert (= ">" (CharAt var34 827)))
(assert (= "@" (CharAt var58 992)))
(assert (= "z" (CharAt var22 310)))
(assert (= "0" (CharAt var11 912)))
(assert (= "-" (CharAt var45 933)))
(assert (= "6" (CharAt var29 188)))
(assert (= "w" (CharAt var34 733)))
(assert (= ")" (CharAt var28 954)))
(assert (= "Q" (CharAt var20 109)))
(assert (= "~" (CharAt var0 451)))
(assert (= "@" (CharAt var51 414)))
(assert (= "_" (CharAt var11 437)))
(assert (= "l" (CharAt var41 141)))
(assert (= "N" (CharAt var11 140)))
(assert (= "X" (CharAt var53 548)))
(assert (= "n" (CharAt var46 820)))
(assert (= "u" (CharAt var12 135)))
(assert (= "%" (CharAt var27 272)))
(assert (= "a" (CharAt var8 93)))
(assert (= "]" (CharAt var26 329)))
(assert (= "g" (CharAt var41 760)))
(assert (= "n" (CharAt var47 460)))
(assert (= "e" (CharAt var31 705)))
(assert (= "P" (CharAt var6 274)))
(assert (= "j" (CharAt var16 975)))
(assert (= "Q" (CharAt var37 866)))
(assert (= ":" (CharAt var56 841)))
(assert (= "!" (CharAt var13 679)))
(assert (= "C" (CharAt var13 191)))
(assert (= "H" (CharAt var38 837)))
(assert (= "h" (CharAt var3 345)))
(assert (= "g" (CharAt var28 495)))
(assert (= "}" (CharAt var37 726)))
(assert (= "U" (CharAt var4 147)))
(assert (= "=" (CharAt var56 122)))
(assert (= "<" (CharAt var29 979)))
(assert (= "}" (CharAt var36 838)))
(assert (= "i" (CharAt var0 582)))
(assert (= "p" (CharAt var9 169)))
(assert (= "C" (CharAt var25 658)))
(assert (= ")" (CharAt var40 174)))
(assert (= "Z" (CharAt var1 313)))
(assert (= "6" (CharAt var34 181)))
(assert (= "K" (CharAt var36 216)))
(assert (= "c" (CharAt var17 829)))
(assert (= "}" (CharAt var26 589)))
(assert (= "v" (CharAt var18 377)))
(assert (= "m" (CharAt var9 831)))
(assert (= "V" (CharAt var3 777)))
(assert (= "u" (CharAt var17 666)))
(assert (= ")" (CharAt var15 877)))
(assert (= "t" (CharAt var55 225)))
(assert (= "%" (CharAt var49 631)))
(assert (= "0" (CharAt var26 912)))
(assert (= "[" (CharAt var18 220)))
(assert (= "," (CharAt var12 233)))
(assert (= "e" (CharAt var60 938)))
(assert (= ";" (CharAt var40 555)))
(assert (= "Y" (CharAt var36 545)))
(assert (= "O" (CharAt var19 842)))
(assert (= "E" (CharAt var43 279)))
(assert (= "w" (CharAt var4 519)))
(assert (= "/" (CharAt var44 943)))
(assert (= "k" (CharAt var43 534)))
(assert (= "6" (CharAt var20 564)))
(assert (= "j" (CharAt var6 354)))
(assert (= "7" (CharAt var53 612)))
(assert (= "}" (CharAt var56 312)))
(assert (= "8" (CharAt var30 592)))
(assert (= ";" (CharAt var34 583)))
(assert (= "{" (CharAt var43 726)))
(assert (= "h" (CharAt var31 664)))
(assert (= "0" (CharAt var28 321)))
(assert (= "#" (CharAt var39 39)))
(assert (= "6" (CharAt var39 34)))
(assert (= ">" (CharAt var48 683)))
(assert (= "J" (CharAt var19 544)))
(assert (= "}" (CharAt var18 955)))
(assert (= "\"" (CharAt var52 443)))
(assert (= "S" (CharAt var54 814)))
(assert (= "}" (CharAt var54 265)))
(assert (= "." (CharAt var47 981)))
(assert (= "x" (CharAt var7 690)))
(assert (= "X" (CharAt var2 956)))
(assert (= "Z" (CharAt var34 724)))
(assert (= ";" (CharAt var57 682)))
(assert (= "J" (CharAt var37 893)))
(assert (= "o" (CharAt var14 13)))
(assert (= "2" (CharAt var22 254)))
(assert (= "(" (CharAt var7 709)))
(assert (= "o" (CharAt var43 819)))
(assert (= "S" (CharAt var1 871)))
(assert (= "\"" (CharAt var45 542)))
(assert (= "w" (CharAt var40 554)))
(assert (= "R" (CharAt var50 313)))
(assert (= "R" (CharAt var23 771)))
(assert (= "M" (CharAt var12 921)))
(assert (= "!" (CharAt var43 163)))
(assert (= "4" (CharAt var48 448)))
(assert (= "1" (CharAt var11 79)))
(assert (= "0" (CharAt var6 587)))
(assert (= "=" (CharAt var41 820)))
(assert (= ";" (CharAt var54 155)))
(assert (= "j" (CharAt var28 28)))
(assert (= "h" (CharAt var58 11)))
(assert (= "z" (CharAt var31 539)))
(assert (= "_" (CharAt var41 309)))
(assert (= "-" (CharAt var6 466)))
(assert (= "E" (CharAt var15 16)))
(assert (= "'" (CharAt var25 292)))
(assert (= "p" (CharAt var4 810)))
(assert (= ";" (CharAt var8 558)))
(assert (= "[" (CharAt var22 127)))
(assert (= "F" (CharAt var41 283)))
(assert (= "-" (CharAt var18 996)))
(assert (= "p" (CharAt var46 495)))
(assert (= "V" (CharAt var25 141)))
(assert (= "l" (CharAt var9 572)))
(assert (= "y" (CharAt var14 458)))
(assert (= "y" (CharAt var30 171)))
(assert (= "e" (CharAt var19 925)))
(assert (= "r" (CharAt var47 206)))
(assert (= ";" (CharAt var6 513)))
(assert (= ")" (CharAt var30 265)))
(assert (= "k" (CharAt var28 76)))
(assert (= "s" (CharAt var17 581)))
(assert (= "}" (CharAt var42 525)))
(assert (= "&" (CharAt var32 70)))
(assert (= "O" (CharAt var23 766)))
(assert (= "!" (CharAt var59 271)))
(assert (= "C" (CharAt var20 642)))
(assert (= "=" (CharAt var50 81)))
(assert (= "a" (CharAt var29 888)))
(assert (= "-" (CharAt var18 979)))
(assert (= "Y" (CharAt var13 520)))
(assert (= "z" (CharAt var50 346)))
(assert (= "." (CharAt var34 972)))
(assert (= "9" (CharAt var42 933)))
(assert (= "9" (CharAt var9 542)))
(assert (= "n" (CharAt var19 448)))
(assert (= "v" (CharAt var14 978)))
(assert (= "C" (CharAt var53 783)))
(assert (= "H" (CharAt var13 721)))
(assert (= ";" (CharAt var36 305)))
(assert (= "I" (CharAt var9 189)))
(assert (= "q" (CharAt var1 134)))
(assert (= "|" (CharAt var54 733)))
(assert (= "J" (CharAt var10 942)))
(assert (= "d" (CharAt var49 319)))
(assert (= "m" (CharAt var60 187)))
(assert (= ":" (CharAt var54 582)))
(assert (= "h" (CharAt var12 145)))
(assert (= "|" (CharAt var53 229)))
(assert (= "#" (CharAt var31 261)))
(assert (= "/" (CharAt var21 241)))
(assert (= ">" (CharAt var2 336)))
(assert (= "V" (CharAt var2 293)))
(assert (= "f" (CharAt var16 53)))
(assert (= ">" (CharAt var26 548)))
(assert (= "U" (CharAt var37 551)))
(assert (= "q" (CharAt var36 39)))
(assert (= "N" (CharAt var49 406)))
(assert (= "r" (CharAt var56 771)))
(assert (= "," (CharAt var6 791)))
(assert (= "." (CharAt var36 73)))
(assert (= "N" (CharAt var31 213)))
(assert (= "=" (CharAt var6 138)))
(assert (= "U" (CharAt var0 783)))
(assert (= "_" (CharAt var52 609)))
(assert (= "T" (CharAt var12 343)))
(assert (= "w" (CharAt var30 925)))
(assert (= "<" (CharAt var33 136)))
(assert (= "\\" (CharAt var26 29)))
(assert (= "v" (CharAt var16 776)))
(assert (= "t" (CharAt var26 52)))
(assert (= "=" (CharAt var12 910)))
(assert (= "P" (CharAt var48 413)))
(assert (= "M" (CharAt var28 636)))
(assert (= "h" (CharAt var0 666)))
(assert (= "Y" (CharAt var54 856)))
(assert (= "w" (CharAt var54 948)))
(assert (= "r" (CharAt var40 475)))
(assert (= "M" (CharAt var59 630)))
(assert (= "z" (CharAt var10 857)))
(assert (= "t" (CharAt var9 916)))
(assert (= "q" (CharAt var59 132)))
(assert (= "}" (CharAt var60 996)))
(assert (= "E" (CharAt var46 273)))
(assert (= "$" (CharAt var16 501)))
(assert (= ";" (CharAt var56 356)))
(assert (= "r" (CharAt var28 177)))
(assert (= "/" (CharAt var28 51)))
(assert (= "S" (CharAt var21 951)))
(assert (= "Z" (CharAt var6 967)))
(assert (= "," (CharAt var49 886)))
(assert (= "u" (CharAt var4 813)))
(assert (= "o" (CharAt var0 484)))
(assert (= "N" (CharAt var39 176)))
(assert (= ">" (CharAt var35 302)))
(assert (= "R" (CharAt var21 589)))
(assert (= "E" (CharAt var52 75)))
(assert (= "F" (CharAt var58 403)))
(assert (= "N" (CharAt var23 204)))
(assert (= "-" (CharAt var26 928)))
(assert (= "_" (CharAt var0 827)))
(assert (= "," (CharAt var30 239)))
(assert (= "U" (CharAt var22 837)))
(assert (= "6" (CharAt var53 392)))
(assert (= "N" (CharAt var5 68)))
(assert (= "$" (CharAt var24 919)))
(assert (= "c" (CharAt var48 110)))
(assert (= "<" (CharAt var22 776)))
(assert (= "H" (CharAt var40 513)))
(assert (= "r" (CharAt var26 474)))
(assert (= "+" (CharAt var36 329)))
(assert (= "Q" (CharAt var42 990)))
(assert (= "9" (CharAt var52 450)))
(assert (= "'" (CharAt var43 820)))
(assert (= "}" (CharAt var60 412)))
(assert (= "D" (CharAt var34 466)))
(assert (= "<" (CharAt var54 324)))
(assert (= ";" (CharAt var46 90)))
(assert (= "t" (CharAt var16 888)))
(assert (= "5" (CharAt var43 852)))
(assert (= "T" (CharAt var25 789)))
(assert (= "S" (CharAt var47 585)))
(assert (= "A" (CharAt var39 828)))
(assert (= "r" (CharAt var60 450)))
(assert (= "v" (CharAt var57 630)))
(assert (= "|" (CharAt var9 350)))
(assert (= "%" (CharAt var43 621)))
(assert (= "G" (CharAt var46 89)))
(assert (= "$" (CharAt var26 774)))
(assert (= "n" (CharAt var37 908)))
(assert (= "u" (CharAt var33 498)))
(assert (= "]" (CharAt var18 906)))
(assert (= "a" (CharAt var11 728)))
(assert (= "*" (CharAt var21 37)))
(assert (= "=" (CharAt var15 192)))
(assert (= "z" (CharAt var40 940)))
(assert (= "j" (CharAt var50 156)))
(assert (= "6" (CharAt var42 112)))
(assert (= "<" (CharAt var12 284)))
(assert (= "{" (CharAt var55 185)))
(assert (= "f" (CharAt var16 458)))
(assert (= "|" (CharAt var5 550)))
(assert (= "S" (CharAt var10 96)))
(assert (= "E" (CharAt var37 511)))
(assert (= "-" (CharAt var7 882)))
(assert (= "M" (CharAt var38 896)))
(assert (= "D" (CharAt var3 230)))
(assert (= "J" (CharAt var47 807)))
(assert (= "m" (CharAt var15 408)))
(assert (= "\"" (CharAt var45 64)))
(assert (= "I" (CharAt var57 655)))
(assert (= "O" (CharAt var45 279)))
(assert (= "'" (CharAt var43 934)))
(assert (= "I" (CharAt var22 558)))
(assert (= "$" (CharAt var25 979)))
(assert (= "|" (CharAt var46 242)))
(assert (= "w" (CharAt var45 360)))
(assert (= "S" (CharAt var25 244)))
(assert (= "$" (CharAt var27 717)))
(assert (= "3" (CharAt var23 243)))
(assert (= "S" (CharAt var28 712)))
(assert (= "K" (CharAt var36 708)))
(assert (= "p" (CharAt var5 312)))
(assert (= "U" (CharAt var33 790)))
(assert (= "1" (CharAt var52 856)))
(assert (= "I" (CharAt var12 810)))
(assert (= "k" (CharAt var44 696)))
(assert (= "M" (CharAt var50 608)))
(assert (= "r" (CharAt var35 232)))
(assert (= "t" (CharAt var27 870)))
(assert (= "<" (CharAt var48 741)))
(assert (= "m" (CharAt var17 214)))
(assert (= "<" (CharAt var38 111)))
(assert (= "X" (CharAt var47 55)))
(assert (= "h" (CharAt var2 688)))
(assert (= "A" (CharAt var3 14)))
(assert (= "r" (CharAt var0 152)))
(assert (= "W" (CharAt var37 650)))
(assert (= "\"" (CharAt var48 87)))
(assert (= "X" (CharAt var10 936)))
(assert (= "t" (CharAt var35 389)))
(assert (= "/" (CharAt var6 412)))
(assert (= "!" (CharAt var7 404)))
(assert (= "5" (CharAt var33 276)))
(assert (= "v" (CharAt var48 457)))
(assert (= "s" (CharAt var9 859)))
(assert (= "a" (CharAt var32 979)))
(assert (= "u" (CharAt var56 66)))
(assert (= "D" (CharAt var5 99)))
(assert (= "R" (CharAt var36 849)))
(assert (= "5" (CharAt var60 473)))
(assert (= "&" (CharAt var40 897)))
(assert (= "6" (CharAt var46 882)))
(assert (= "9" (CharAt var13 669)))
(assert (= "c" (CharAt var33 820)))
(assert (= "+" (CharAt var12 18)))
(assert (= "}" (CharAt var13 457)))
(assert (= "r" (CharAt var54 758)))
(assert (= "O" (CharAt var10 524)))
(assert (= "D" (CharAt var53 357)))
(assert (= "B" (CharAt var32 137)))
(assert (= "E" (CharAt var33 794)))
(assert (= "C" (CharAt var44 76)))
(assert (= "2" (CharAt var34 665)))
(assert (= "e" (CharAt var25 440)))
(assert (= "E" (CharAt var56 209)))
(assert (= "1" (CharAt var13 5)))
(assert (= "b" (CharAt var24 77)))
(assert (= "-" (CharAt var22 463)))
(assert (= ">" (CharAt var1 157)))
(assert (= "l" (CharAt var40 703)))
(assert (= "W" (CharAt var17 434)))
(assert (= "~" (CharAt var52 373)))
(assert (= "W" (CharAt var59 606)))
(assert (= "@" (CharAt var7 843)))
(assert (= "e" (CharAt var7 520)))
(assert (= "5" (CharAt var23 561)))
(assert (= "|" (CharAt var2 540)))
(assert (= "%" (CharAt var18 140)))
(assert (= "^" (CharAt var6 920)))
(assert (= "q" (CharAt var28 63)))
(assert (= "P" (CharAt var3 310)))
(assert (= "+" (CharAt var12 460)))
(assert (= "|" (CharAt var41 408)))
(assert (= "r" (CharAt var14 882)))
(assert (= "d" (CharAt var47 873)))
(assert (= "_" (CharAt var1 341)))
(assert (= "o" (CharAt var54 349)))
(assert (= "," (CharAt var52 516)))
(assert (= "b" (CharAt var49 692)))
(assert (= "R" (CharAt var11 106)))
(assert (= "r" (CharAt var17 987)))
(assert (= "g" (CharAt var15 89)))
(assert (= "W" (CharAt var11 590)))
(assert (= "=" (CharAt var50 129)))
(assert (= "q" (CharAt var3 26)))
(assert (= "@" (CharAt var5 624)))
(assert (= "^" (CharAt var4 761)))
(assert (= "[" (CharAt var58 753)))
(assert (= "B" (CharAt var50 27)))
(assert (= "\\" (CharAt var21 183)))
(assert (= "!" (CharAt var40 551)))
(assert (= "d" (CharAt var60 530)))
(assert (= "a" (CharAt var13 460)))
(assert (= "=" (CharAt var25 425)))
(assert (= ":" (CharAt var37 467)))
(assert (= "u" (CharAt var12 341)))
(assert (= "u" (CharAt var35 547)))
(assert (= "4" (CharAt var6 29)))
(assert (= "A" (CharAt var1 885)))
(assert (= "h" (CharAt var51 329)))
(assert (= "9" (CharAt var57 696)))
(assert (= "A" (CharAt var51 20)))
(assert (= "~" (CharAt var11 407)))
(assert (= "/" (CharAt var23 521)))
(assert (= "x" (CharAt var44 465)))
(assert (= "i" (CharAt var28 557)))
(assert (= "~" (CharAt var35 552)))
(assert (= "^" (CharAt var52 868)))
(assert (= "I" (CharAt var46 680)))
(assert (= "~" (CharAt var39 51)))
(assert (= "~" (CharAt var47 734)))
(assert (= "`" (CharAt var50 975)))
(assert (= "!" (CharAt var59 1000)))
(assert (= ">" (CharAt var23 315)))
(assert (= "K" (CharAt var60 296)))
(assert (= "e" (CharAt var1 440)))
(assert (= "~" (CharAt var39 103)))
(assert (= ":" (CharAt var28 551)))
(assert (= "y" (CharAt var4 243)))
(assert (= "f" (CharAt var15 770)))
(assert (= "n" (CharAt var40 472)))
(assert (= "4" (CharAt var34 967)))
(assert (= "@" (CharAt var47 14)))
(assert (= "a" (CharAt var6 36)))
(assert (= "b" (CharAt var0 444)))
(assert (= "q" (CharAt var3 33)))
(assert (= "X" (CharAt var13 770)))
(assert (= "-" (CharAt var41 590)))
(assert (= "!" (CharAt var11 791)))
(assert (= "G" (CharAt var57 616)))
(assert (= "|" (CharAt var41 799)))
(assert (= "s" (CharAt var30 215)))
(assert (= "N" (CharAt var28 462)))
(assert (= "z" (CharAt var2 136)))
(assert (= "W" (CharAt var16 804)))
(assert (= "!" (CharAt var10 808)))
(assert (= "t" (CharAt var47 506)))
(assert (= "D" (CharAt var44 627)))
(assert (= "f" (CharAt var59 87)))
(assert (= "7" (CharAt var14 892)))
(assert (= "c" (CharAt var58 311)))
(assert (= "X" (CharAt var55 531)))
(assert (= "6" (CharAt var52 532)))
(assert (= "'" (CharAt var44 423)))
(assert (= "=" (CharAt var58 27)))
(assert (= "1" (CharAt var22 551)))
(assert (= ")" (CharAt var5 162)))
(assert (= "R" (CharAt var54 401)))
(assert (= "'" (CharAt var42 569)))
(assert (= "Y" (CharAt var57 615)))
(assert (= "l" (CharAt var37 356)))
(assert (= "6" (CharAt var51 773)))
(assert (= "y" (CharAt var48 587)))
(assert (= "<" (CharAt var31 166)))
(assert (= "{" (CharAt var56 7)))
(assert (= "d" (CharAt var3 467)))
(assert (= "c" (CharAt var17 536)))
(assert (= "|" (CharAt var55 564)))
(assert (= "c" (CharAt var26 655)))
(assert (= "C" (CharAt var19 896)))
(assert (= "i" (CharAt var48 433)))
(assert (= "{" (CharAt var7 789)))
(assert (= "`" (CharAt var22 915)))
(assert (= "R" (CharAt var7 752)))
(assert (= "*" (CharAt var16 950)))
(assert (= "i" (CharAt var16 739)))
(assert (= "3" (CharAt var5 852)))
(assert (= "8" (CharAt var51 776)))
(assert (= "%" (CharAt var39 5)))
(assert (= "!" (CharAt var46 169)))
(assert (= "r" (CharAt var40 252)))
(assert (= "~" (CharAt var59 503)))
(assert (= "Y" (CharAt var54 606)))
(assert (= "?" (CharAt var42 266)))
(assert (= "A" (CharAt var31 203)))
(assert (= "2" (CharAt var9 927)))
(assert (= "~" (CharAt var47 603)))
(assert (= "7" (CharAt var42 825)))
(assert (= "F" (CharAt var11 770)))
(assert (= "[" (CharAt var45 196)))
(assert (= "k" (CharAt var15 334)))
(assert (= "L" (CharAt var3 710)))
(assert (= "$" (CharAt var42 155)))
(assert (= "-" (CharAt var16 335)))
(assert (= "P" (CharAt var48 489)))
(assert (= "q" (CharAt var30 577)))
(assert (= "I" (CharAt var5 142)))
(assert (= "C" (CharAt var9 656)))
(assert (= "/" (CharAt var35 405)))
(assert (= "u" (CharAt var32 793)))
(assert (= "[" (CharAt var17 970)))
(assert (= "b" (CharAt var55 576)))
(assert (= "S" (CharAt var13 368)))
(assert (= "i" (CharAt var1 286)))
(assert (= "W" (CharAt var26 857)))
(assert (= "u" (CharAt var5 489)))
(assert (= "N" (CharAt var12 646)))
(assert (= "~" (CharAt var14 272)))
(assert (= "q" (CharAt var7 545)))
(assert (= "!" (CharAt var35 352)))
(assert (= "N" (CharAt var28 250)))
(assert (= "n" (CharAt var26 686)))
(assert (= "P" (CharAt var48 747)))
(assert (= "@" (CharAt var37 134)))
(assert (= "`" (CharAt var43 518)))
(assert (= "&" (CharAt var2 938)))
(assert (= ":" (CharAt var18 289)))
(assert (= "[" (CharAt var18 988)))
(assert (= "(" (CharAt var56 432)))
(assert (= "'" (CharAt var58 586)))
(assert (= "=" (CharAt var10 880)))
(assert (= "[" (CharAt var33 410)))
(assert (= ":" (CharAt var8 809)))
(assert (= "N" (CharAt var15 791)))
(assert (= "%" (CharAt var9 201)))
(assert (= "V" (CharAt var9 287)))
(assert (= "d" (CharAt var5 814)))
(assert (= "p" (CharAt var4 528)))
(assert (= "Y" (CharAt var24 314)))
(assert (= "Z" (CharAt var29 880)))
(assert (= "M" (CharAt var34 421)))
(assert (= "i" (CharAt var13 628)))
(assert (= ":" (CharAt var14 722)))
(assert (= "," (CharAt var19 841)))
(assert (= "." (CharAt var16 736)))
(assert (= "^" (CharAt var1 331)))
(assert (= "\"" (CharAt var18 632)))
(assert (= "n" (CharAt var43 713)))
(assert (= "[" (CharAt var56 278)))
(assert (= "J" (CharAt var14 247)))
(assert (= "z" (CharAt var3 623)))
(assert (= "g" (CharAt var38 105)))
(assert (= "G" (CharAt var60 340)))
(assert (= "[" (CharAt var1 715)))
(assert (= "\"" (CharAt var31 992)))
(assert (= "7" (CharAt var27 484)))
(assert (= "s" (CharAt var18 844)))
(assert (= "y" (CharAt var59 408)))
(assert (= "B" (CharAt var22 185)))
(assert (= "9" (CharAt var36 136)))
(assert (= "q" (CharAt var6 699)))
(assert (= "z" (CharAt var10 940)))
(assert (= "O" (CharAt var22 731)))
(assert (= "c" (CharAt var34 153)))
(assert (= "L" (CharAt var28 424)))
(assert (= "!" (CharAt var15 405)))
(assert (= "c" (CharAt var21 991)))
(assert (= "K" (CharAt var16 354)))
(assert (= "w" (CharAt var48 57)))
(assert (= "." (CharAt var1 653)))
(assert (= "I" (CharAt var14 671)))
(assert (= "t" (CharAt var2 38)))
(assert (= "q" (CharAt var15 484)))
(assert (= ")" (CharAt var43 487)))
(assert (= "r" (CharAt var60 739)))
(assert (= ";" (CharAt var54 599)))
(assert (= "x" (CharAt var7 65)))
(assert (= ">" (CharAt var55 86)))
(assert (= "W" (CharAt var6 215)))
(assert (= "A" (CharAt var49 277)))
(assert (= "." (CharAt var19 90)))
(assert (= "!" (CharAt var19 608)))
(assert (= "i" (CharAt var0 824)))
(assert (= "6" (CharAt var20 139)))
(assert (= "S" (CharAt var26 354)))
(assert (= "\"" (CharAt var14 627)))
(assert (= "2" (CharAt var4 51)))
(assert (= "F" (CharAt var27 712)))
(check-sat)